Problem:    sentinelle
Rows:       31
Columns:    30 (30 integer, 30 binary)
Non-zeros:  146
Status:     INTEGER OPTIMAL
Objective:  z = 9 (MINimum)

   No.   Row name        Activity     Lower bound   Upper bound
------ ------------    ------------- ------------- -------------
     1 z                           9                             
     2 Controllo[1]                2             1               
     3 Controllo[2]                2             1               
     4 Controllo[3]                1             1               
     5 Controllo[4]                2             1               
     6 Controllo[5]                1             1               
     7 Controllo[6]                1             1               
     8 Controllo[7]                1             1               
     9 Controllo[8]                1             1               
    10 Controllo[9]                2             1               
    11 Controllo[10]
                                   2             1               
    12 Controllo[11]
                                   1             1               
    13 Controllo[12]
                                   2             1               
    14 Controllo[13]
                                   1             1               
    15 Controllo[14]
                                   2             1               
    16 Controllo[15]
                                   1             1               
    17 Controllo[16]
                                   1             1               
    18 Controllo[17]
                                   1             1               
    19 Controllo[18]
                                   1             1               
    20 Controllo[19]
                                   2             1               
    21 Controllo[20]
                                   1             1               
    22 Controllo[21]
                                   1             1               
    23 Controllo[22]
                                   1             1               
    24 Controllo[23]
                                   1             1               
    25 Controllo[24]
                                   1             1               
    26 Controllo[25]
                                   1             1               
    27 Controllo[26]
                                   1             1               
    28 Controllo[27]
                                   1             1               
    29 Controllo[28]
                                   1             1               
    30 Controllo[29]
                                   2             1               
    31 Controllo[30]
                                   1             1               

   No. Column name       Activity     Lower bound   Upper bound
------ ------------    ------------- ------------- -------------
     1 x[1]         *              1             0             1 
     2 x[2]         *              1             0             1 
     3 x[3]         *              0             0             1 
     4 x[4]         *              0             0             1 
     5 x[5]         *              0             0             1 
     6 x[6]         *              0             0             1 
     7 x[7]         *              1             0             1 
     8 x[8]         *              1             0             1 
     9 x[9]         *              0             0             1 
    10 x[10]        *              0             0             1 
    11 x[11]        *              1             0             1 
    12 x[12]        *              0             0             1 
    13 x[13]        *              0             0             1 
    14 x[14]        *              0             0             1 
    15 x[15]        *              1             0             1 
    16 x[16]        *              0             0             1 
    17 x[17]        *              0             0             1 
    18 x[18]        *              1             0             1 
    19 x[19]        *              0             0             1 
    20 x[20]        *              1             0             1 
    21 x[21]        *              0             0             1 
    22 x[22]        *              0             0             1 
    23 x[23]        *              0             0             1 
    24 x[24]        *              1             0             1 
    25 x[25]        *              0             0             1 
    26 x[26]        *              0             0             1 
    27 x[27]        *              0             0             1 
    28 x[28]        *              0             0             1 
    29 x[29]        *              0             0             1 
    30 x[30]        *              0             0             1 

Integer feasibility conditions:

KKT.PE: max.abs.err = 0.00e+00 on row 0
        max.rel.err = 0.00e+00 on row 0
        High quality

KKT.PB: max.abs.err = 0.00e+00 on row 0
        max.rel.err = 0.00e+00 on row 0
        High quality

End of output
